NAME : Instance 28
COMMENT : Comment 28
TYPE : TSP
DIMENSION: 30
EDGE_WEIGHT_TYPE : EUC_2D
NODE_COORD_SECTION
  1 594 1015
  2 1205 468
  3 1060 1980
  4 1600 1614
  5 1179 697
  6 910 1368
  7 598 979
  8 1550 748
  9 1577 102
  10 891 1142
  11 1208 1134
  12 367 980
  13 1453 1796
  14 1880 1552
  15 531 459
  16 935 115
  17 1695 184
  18 1223 209
  19 62 1642
  20 1399 39
  21 933 1448
  22 259 1762
  23 921 1809
  24 811 1335
  25 792 1457
  26 1345 910
  27 1904 33
  28 253 867
  29 66 942
  30 1655 185
EOF
